c Created with the Wolfram Language : www.wolfram.com
c 
p edge 90 804
e 1 2
e 2 6
e 3 6
e 5 6
e 4 7
e 5 7
e 5 8
e 6 8
e 2 9
e 5 9
e 7 9
e 5 10
e 6 10
e 9 10
e 3 11
e 6 11
e 7 12
e 1 13
e 4 13
e 7 13
e 1 14
e 3 14
e 9 14
e 11 14
e 5 15
e 3 16
e 4 16
e 5 16
e 7 16
e 8 16
e 11 16
e 2 17
e 4 17
e 6 17
e 9 17
e 14 17
e 2 18
e 9 18
e 12 18
e 3 19
e 4 19
e 6 19
e 10 19
e 11 19
e 15 19
e 4 20
e 19 20
e 1 21
e 4 21
e 11 21
e 15 21
e 16 21
e 18 21
e 8 22
e 16 22
e 4 23
e 6 23
e 7 23
e 1 24
e 6 24
e 8 24
e 18 24
e 21 24
e 3 25
e 4 25
e 10 25
e 16 25
e 17 25
e 18 25
e 1 26
e 5 26
e 13 26
e 14 26
e 20 26
e 25 26
e 6 27
e 9 27
e 11 27
e 13 27
e 15 27
e 16 27
e 20 27
e 1 28
e 19 28
e 21 28
e 4 29
e 12 29
e 21 29
e 26 29
e 28 29
e 3 30
e 8 30
e 10 30
e 11 30
e 20 30
e 23 30
e 25 30
e 29 30
e 7 31
e 9 31
e 10 31
e 16 31
e 26 31
e 30 31
e 5 32
e 17 32
e 20 32
e 31 32
e 4 33
e 5 33
e 6 33
e 15 33
e 23 33
e 27 33
e 28 33
e 4 34
e 5 34
e 11 34
e 22 34
e 23 34
e 32 34
e 11 35
e 17 35
e 32 35
e 9 36
e 10 36
e 16 36
e 19 36
e 20 36
e 24 36
e 28 36
e 3 37
e 20 37
e 26 37
e 31 37
e 2 38
e 6 38
e 24 38
e 33 38
e 5 39
e 10 39
e 11 39
e 18 39
e 22 39
e 25 39
e 4 40
e 10 40
e 11 40
e 17 40
e 19 40
e 20 40
e 22 40
e 24 40
e 27 40
e 29 40
e 30 40
e 32 40
e 5 41
e 9 41
e 10 41
e 18 41
e 20 41
e 21 41
e 26 41
e 27 41
e 30 41
e 40 41
e 32 42
e 33 42
e 40 42
e 3 43
e 4 43
e 5 43
e 9 43
e 10 43
e 16 43
e 18 43
e 23 43
e 2 44
e 9 44
e 13 44
e 14 44
e 16 44
e 20 44
e 34 44
e 37 44
e 5 45
e 14 45
e 17 45
e 20 45
e 27 45
e 29 45
e 30 45
e 44 45
e 2 46
e 9 46
e 10 46
e 15 46
e 21 46
e 24 46
e 25 46
e 26 46
e 32 46
e 36 46
e 39 46
e 41 46
e 43 46
e 44 46
e 6 47
e 33 47
e 41 47
e 43 47
e 45 47
e 1 48
e 12 48
e 14 48
e 20 48
e 26 48
e 32 48
e 34 48
e 37 48
e 39 48
e 42 48
e 44 48
e 8 49
e 11 49
e 16 49
e 17 49
e 23 49
e 28 49
e 31 49
e 39 49
e 41 49
e 44 49
e 1 50
e 6 50
e 11 50
e 12 50
e 13 50
e 29 50
e 32 50
e 40 50
e 2 51
e 5 51
e 10 51
e 28 51
e 34 51
e 43 51
e 50 51
e 6 52
e 16 52
e 19 52
e 25 52
e 32 52
e 37 52
e 40 52
e 48 52
e 49 52
e 10 53
e 11 53
e 13 53
e 16 53
e 19 53
e 23 53
e 29 53
e 44 53
e 47 53
e 1 54
e 2 54
e 8 54
e 9 54
e 17 54
e 21 54
e 26 54
e 29 54
e 30 54
e 35 54
e 36 54
e 37 54
e 38 54
e 43 54
e 1 55
e 3 55
e 6 55
e 8 55
e 12 55
e 20 55
e 31 55
e 36 55
e 44 55
e 45 55
e 48 55
e 49 55
e 54 55
e 8 56
e 14 56
e 15 56
e 19 56
e 23 56
e 32 56
e 35 56
e 36 56
e 38 56
e 39 56
e 42 56
e 49 56
e 50 56
e 51 56
e 54 56
e 55 56
e 1 57
e 3 57
e 13 57
e 14 57
e 15 57
e 23 57
e 34 57
e 37 57
e 40 57
e 54 57
e 4 58
e 11 58
e 14 58
e 15 58
e 17 58
e 19 58
e 21 58
e 29 58
e 30 58
e 40 58
e 43 58
e 50 58
e 1 59
e 9 59
e 14 59
e 15 59
e 31 59
e 33 59
e 40 59
e 47 59
e 52 59
e 53 59
e 56 59
e 7 60
e 10 60
e 24 60
e 26 60
e 29 60
e 31 60
e 39 60
e 49 60
e 50 60
e 52 60
e 56 60
e 4 61
e 5 61
e 8 61
e 23 61
e 24 61
e 27 61
e 29 61
e 38 61
e 43 61
e 49 61
e 54 61
e 60 61
e 9 62
e 10 62
e 16 62
e 34 62
e 35 62
e 37 62
e 46 62
e 47 62
e 49 62
e 55 62
e 57 62
e 58 62
e 8 63
e 10 63
e 19 63
e 20 63
e 22 63
e 24 63
e 40 63
e 41 63
e 45 63
e 47 63
e 48 63
e 49 63
e 60 63
e 1 64
e 2 64
e 6 64
e 7 64
e 14 64
e 30 64
e 43 64
e 44 64
e 45 64
e 47 64
e 58 64
e 63 64
e 1 65
e 2 65
e 3 65
e 9 65
e 15 65
e 17 65
e 20 65
e 25 65
e 29 65
e 31 65
e 32 65
e 34 65
e 35 65
e 39 65
e 43 65
e 51 65
e 55 65
e 58 65
e 64 65
e 8 66
e 16 66
e 17 66
e 18 66
e 20 66
e 23 66
e 29 66
e 37 66
e 53 66
e 57 66
e 2 67
e 4 67
e 6 67
e 8 67
e 12 67
e 13 67
e 18 67
e 21 67
e 27 67
e 28 67
e 30 67
e 31 67
e 42 67
e 46 67
e 60 67
e 62 67
e 63 67
e 65 67
e 1 68
e 4 68
e 18 68
e 19 68
e 22 68
e 33 68
e 37 68
e 38 68
e 40 68
e 46 68
e 57 68
e 65 68
e 3 69
e 25 69
e 29 69
e 39 69
e 47 69
e 54 69
e 55 69
e 64 69
e 65 69
e 66 69
e 68 69
e 2 70
e 3 70
e 12 70
e 15 70
e 22 70
e 32 70
e 35 70
e 37 70
e 53 70
e 61 70
e 2 71
e 10 71
e 21 71
e 22 71
e 29 71
e 32 71
e 38 71
e 41 71
e 49 71
e 51 71
e 53 71
e 55 71
e 56 71
e 62 71
e 7 72
e 11 72
e 27 72
e 36 72
e 40 72
e 45 72
e 48 72
e 50 72
e 55 72
e 63 72
e 64 72
e 65 72
e 68 72
e 69 72
e 4 73
e 10 73
e 14 73
e 16 73
e 20 73
e 34 73
e 39 73
e 40 73
e 41 73
e 42 73
e 47 73
e 48 73
e 51 73
e 52 73
e 57 73
e 59 73
e 63 73
e 65 73
e 70 73
e 2 74
e 6 74
e 7 74
e 8 74
e 13 74
e 20 74
e 23 74
e 31 74
e 37 74
e 39 74
e 40 74
e 41 74
e 42 74
e 43 74
e 59 74
e 70 74
e 4 75
e 5 75
e 6 75
e 15 75
e 16 75
e 21 75
e 23 75
e 35 75
e 39 75
e 44 75
e 45 75
e 46 75
e 49 75
e 56 75
e 59 75
e 74 75
e 8 76
e 13 76
e 17 76
e 20 76
e 23 76
e 28 76
e 29 76
e 30 76
e 48 76
e 54 76
e 56 76
e 6 77
e 7 77
e 10 77
e 22 77
e 23 77
e 25 77
e 26 77
e 30 77
e 38 77
e 55 77
e 57 77
e 59 77
e 70 77
e 71 77
e 73 77
e 75 77
e 8 78
e 10 78
e 14 78
e 16 78
e 19 78
e 25 78
e 37 78
e 43 78
e 47 78
e 48 78
e 56 78
e 60 78
e 66 78
e 70 78
e 1 79
e 3 79
e 4 79
e 9 79
e 11 79
e 14 79
e 17 79
e 27 79
e 28 79
e 35 79
e 40 79
e 41 79
e 42 79
e 49 79
e 55 79
e 67 79
e 2 80
e 8 80
e 19 80
e 23 80
e 31 80
e 33 80
e 37 80
e 41 80
e 44 80
e 45 80
e 49 80
e 52 80
e 57 80
e 60 80
e 61 80
e 64 80
e 65 80
e 69 80
e 79 80
e 8 81
e 12 81
e 26 81
e 34 81
e 47 81
e 53 81
e 57 81
e 59 81
e 75 81
e 78 81
e 4 82
e 6 82
e 12 82
e 19 82
e 22 82
e 23 82
e 29 82
e 31 82
e 37 82
e 38 82
e 42 82
e 44 82
e 53 82
e 64 82
e 68 82
e 73 82
e 74 82
e 80 82
e 81 82
e 4 83
e 5 83
e 11 83
e 23 83
e 24 83
e 25 83
e 26 83
e 29 83
e 34 83
e 38 83
e 39 83
e 40 83
e 41 83
e 46 83
e 52 83
e 56 83
e 60 83
e 62 83
e 63 83
e 64 83
e 70 83
e 71 83
e 74 83
e 77 83
e 1 84
e 3 84
e 12 84
e 18 84
e 19 84
e 23 84
e 24 84
e 30 84
e 33 84
e 44 84
e 47 84
e 48 84
e 52 84
e 60 84
e 63 84
e 69 84
e 74 84
e 76 84
e 3 85
e 22 85
e 31 85
e 37 85
e 39 85
e 46 85
e 48 85
e 54 85
e 55 85
e 64 85
e 69 85
e 70 85
e 71 85
e 73 85
e 74 85
e 79 85
e 80 85
e 81 85
e 4 86
e 16 86
e 19 86
e 20 86
e 21 86
e 34 86
e 36 86
e 39 86
e 43 86
e 54 86
e 55 86
e 66 86
e 75 86
e 78 86
e 82 86
e 10 87
e 49 87
e 51 87
e 55 87
e 61 87
e 67 87
e 76 87
e 7 88
e 8 88
e 9 88
e 10 88
e 25 88
e 34 88
e 40 88
e 41 88
e 53 88
e 54 88
e 56 88
e 60 88
e 65 88
e 68 88
e 70 88
e 71 88
e 75 88
e 80 88
e 87 88
e 3 89
e 8 89
e 10 89
e 14 89
e 17 89
e 25 89
e 26 89
e 30 89
e 40 89
e 41 89
e 43 89
e 46 89
e 49 89
e 55 89
e 61 89
e 64 89
e 72 89
e 83 89
e 3 90
e 6 90
e 7 90
e 17 90
e 18 90
e 19 90
e 29 90
e 39 90
e 44 90
e 53 90
e 54 90
e 56 90
e 61 90
e 63 90
e 68 90
e 74 90
e 78 90
e 84 90
